p edge 22 76
e 1 3
e 1 6
e 1 8
e 1 9
e 1 12
e 1 14
e 1 20
e 1 21
e 2 3
e 2 5
e 2 6
e 2 13
e 2 18
e 2 22
e 3 5
e 3 6
e 3 8
e 3 11
e 3 18
e 4 6
e 4 7
e 4 9
e 4 10
e 4 13
e 4 19
e 5 6
e 5 9
e 5 10
e 5 14
e 5 18
e 6 7
e 6 12
e 6 13
e 6 18
e 6 19
e 6 20
e 6 21
e 7 8
e 7 13
e 7 17
e 7 19
e 8 15
e 9 10
e 9 11
e 9 14
e 9 15
e 10 12
e 10 14
e 10 22
e 11 15
e 11 16
e 11 18
e 11 19
e 12 13
e 12 17
e 12 20
e 12 21
e 12 22
e 13 17
e 13 19
e 13 22
e 14 15
e 14 19
e 14 21
e 15 19
e 15 21
e 16 17
e 16 18
e 16 21
e 17 18
e 17 21
e 18 19
e 18 21
e 19 21
e 20 21
e 20 22
